c nombre: 32
c densidad: 0.3
p edges 50 388
e 1 4
e 1 6
e 1 7
e 1 9
e 1 10
e 1 22
e 1 24
e 1 25
e 1 34
e 1 37
e 1 40
e 1 45
e 1 49
e 1 50
e 2 6
e 2 7
e 2 9
e 2 13
e 2 15
e 2 16
e 2 17
e 2 19
e 2 25
e 2 29
e 2 30
e 2 31
e 2 32
e 2 34
e 2 35
e 2 38
e 2 46
e 3 7
e 3 8
e 3 12
e 3 22
e 3 23
e 3 26
e 3 27
e 3 30
e 3 33
e 3 35
e 3 37
e 3 41
e 3 42
e 3 43
e 3 49
e 4 6
e 4 8
e 4 11
e 4 13
e 4 14
e 4 15
e 4 19
e 4 20
e 4 21
e 4 25
e 4 27
e 4 31
e 4 33
e 4 36
e 4 38
e 4 39
e 4 40
e 4 43
e 4 44
e 4 46
e 4 50
e 5 12
e 5 14
e 5 17
e 5 23
e 5 25
e 5 26
e 5 31
e 5 35
e 5 39
e 5 45
e 5 46
e 5 48
e 6 13
e 6 14
e 6 15
e 6 18
e 6 22
e 6 23
e 6 24
e 6 25
e 6 26
e 6 29
e 6 31
e 6 32
e 6 34
e 6 36
e 6 38
e 6 40
e 6 47
e 6 50
e 7 8
e 7 11
e 7 18
e 7 25
e 7 28
e 7 30
e 7 33
e 7 37
e 7 38
e 7 42
e 7 46
e 7 47
e 7 49
e 8 10
e 8 11
e 8 14
e 8 18
e 8 20
e 8 32
e 8 36
e 8 40
e 8 42
e 8 47
e 8 49
e 9 10
e 9 12
e 9 14
e 9 18
e 9 22
e 9 24
e 9 26
e 9 28
e 9 29
e 9 32
e 9 33
e 9 36
e 9 39
e 9 40
e 9 42
e 9 45
e 9 46
e 9 48
e 9 49
e 10 16
e 10 18
e 10 22
e 10 24
e 10 29
e 10 34
e 10 35
e 10 37
e 10 39
e 10 42
e 10 43
e 10 49
e 11 12
e 11 14
e 11 15
e 11 16
e 11 20
e 11 21
e 11 27
e 11 29
e 11 30
e 11 31
e 11 34
e 11 36
e 11 40
e 12 23
e 12 25
e 12 26
e 12 31
e 12 32
e 12 36
e 12 37
e 12 41
e 12 43
e 12 44
e 12 45
e 13 15
e 13 22
e 13 23
e 13 28
e 13 29
e 13 33
e 13 35
e 13 38
e 13 42
e 13 47
e 14 20
e 14 21
e 14 26
e 14 32
e 14 37
e 14 38
e 14 39
e 14 40
e 14 44
e 14 46
e 14 49
e 15 17
e 15 23
e 15 25
e 15 28
e 15 29
e 15 31
e 15 33
e 15 35
e 15 36
e 15 37
e 15 40
e 15 42
e 15 43
e 15 44
e 15 45
e 15 47
e 16 17
e 16 19
e 16 20
e 16 21
e 16 22
e 16 24
e 16 26
e 16 27
e 16 30
e 16 31
e 16 32
e 16 33
e 16 36
e 16 39
e 16 41
e 16 43
e 16 44
e 16 45
e 16 46
e 16 48
e 17 19
e 17 20
e 17 22
e 17 25
e 17 26
e 17 28
e 17 38
e 17 41
e 17 47
e 17 49
e 17 50
e 18 21
e 18 28
e 18 30
e 18 34
e 18 38
e 18 39
e 18 41
e 18 49
e 18 50
e 19 23
e 19 25
e 19 31
e 19 32
e 19 45
e 20 21
e 20 27
e 20 28
e 20 29
e 20 31
e 20 32
e 20 36
e 20 37
e 20 40
e 20 41
e 20 47
e 21 27
e 21 30
e 21 32
e 21 33
e 21 36
e 21 38
e 21 39
e 21 40
e 21 44
e 21 45
e 21 46
e 21 48
e 21 49
e 22 32
e 22 35
e 22 36
e 22 37
e 22 38
e 22 39
e 22 41
e 22 43
e 22 47
e 22 50
e 23 24
e 23 33
e 23 36
e 23 46
e 24 28
e 24 34
e 24 37
e 24 40
e 24 44
e 24 45
e 24 46
e 24 50
e 25 36
e 25 45
e 25 47
e 25 50
e 26 31
e 26 34
e 26 39
e 26 44
e 26 45
e 26 48
e 27 29
e 27 36
e 27 46
e 28 36
e 28 40
e 28 42
e 28 44
e 28 49
e 28 50
e 29 30
e 29 32
e 29 36
e 29 37
e 29 44
e 29 49
e 30 32
e 30 36
e 30 39
e 30 40
e 30 43
e 30 45
e 30 46
e 31 33
e 31 40
e 31 43
e 31 46
e 31 47
e 32 34
e 32 37
e 32 42
e 32 43
e 32 44
e 32 46
e 32 50
e 33 38
e 33 43
e 33 44
e 33 45
e 34 36
e 34 41
e 34 43
e 35 41
e 35 44
e 35 45
e 35 47
e 35 49
e 36 38
e 36 39
e 36 43
e 36 49
e 37 38
e 37 42
e 37 45
e 37 50
e 38 41
e 38 42
e 38 45
e 39 42
e 39 47
e 39 50
e 40 42
e 40 48
e 40 49
e 41 44
e 41 47
e 42 44
e 42 45
e 42 46
e 43 47
e 44 48
e 46 49
e 46 50
e 47 49
e 47 50
